
Welcome to IBM(R) ILOG(R) CPLEX(R) Interactive Optimizer 22.1.1.0
  with Simplex, Mixed Integer & Barrier Optimizers
5725-A06 5725-A29 5724-Y48 5724-Y49 5724-Y54 5724-Y55 5655-Y21
Copyright IBM Corp. 1988, 2022.  All Rights Reserved.

Type 'help' for a list of available commands.
Type 'help' followed by a command name for more
information on commands.

CPLEX> Selected objective sense:  MINIMIZE
Selected objective  name:  00000000
Selected RHS        name:  RHS1
Selected bound      name:  BOUND
Problem 'ee.mps' read.
Read time = 0.03 sec. (3.14 ticks)
CPLEX> New value for time limit in seconds: 7200
CPLEX> New value for parallel optimization mode: -1
CPLEX> New value for default parallel thread count: 40
CPLEX> New value for mixed integer optimality gap tolerance: 1e-13
CPLEX> Version identifier: 22.1.1.0 | 2022-11-28 | 9160aff4d
CPXPARAM_Threads                                 40
CPXPARAM_Parallel                                -1
CPXPARAM_TimeLimit                               7200
CPXPARAM_MIP_Tolerances_MIPGap                   1e-13
Found incumbent of value 0.000000 after 0.00 sec. (0.31 ticks)
Tried aggregator 2 times.
MIP Presolve eliminated 518 rows and 3608 columns.
MIP Presolve modified 5664 coefficients.
Aggregator did 785 substitutions.
Reduced MIP has 3215 rows, 6810 columns, and 25107 nonzeros.
Reduced MIP has 6810 binaries, 0 generals, 0 SOSs, and 0 indicators.
Presolve time = 0.07 sec. (67.17 ticks)
Probing time = 0.03 sec. (5.10 ticks)
Tried aggregator 1 time.
Detecting symmetries...
Reduced MIP has 3215 rows, 6810 columns, and 25107 nonzeros.
Reduced MIP has 6810 binaries, 0 generals, 0 SOSs, and 0 indicators.
Presolve time = 0.03 sec. (19.09 ticks)
Probing time = 0.02 sec. (4.93 ticks)
Clique table members: 16290.
MIP emphasis: balance optimality and feasibility.
MIP search method: dynamic search.
Parallel mode: opportunistic, using up to 40 threads.
Root relaxation solution time = 0.08 sec. (60.06 ticks)

        Nodes                                         Cuts/
   Node  Left     Objective  IInf  Best Integer    Best Bound    ItCnt     Gap

*     0+    0                            0.0000  -1.31000e+13              --- 
*     0+    0                      -5.50000e+12  -1.31000e+13           138.18%
      0     0  -1.30900e+13    26  -5.50000e+12  -1.30900e+13     1811  138.00%
*     0+    0                      -1.30900e+13  -1.30900e+13             0.00%
      0     0  -1.30900e+13   115  -1.30900e+13      Cuts: 41     1943    0.00%
*     0+    0                      -1.30900e+13  -1.30900e+13             0.00%
*     0+    0                      -1.30900e+13  -1.30900e+13             0.00%
      0     0  -1.30900e+13   119  -1.30900e+13      Cuts: 59     2106    0.00%
*     0+    0                      -1.30900e+13  -1.30900e+13             0.00%

Repeating presolve.
Tried aggregator 2 times.
MIP Presolve eliminated 1043 rows and 2628 columns.
MIP Presolve added 8 rows and 0 columns.
MIP Presolve modified 97 coefficients.
Aggregator did 410 substitutions.
Reduced MIP has 1770 rows, 3722 columns, and 13185 nonzeros.
Reduced MIP has 3722 binaries, 0 generals, 0 SOSs, and 0 indicators.
Presolve time = 0.04 sec. (39.95 ticks)
Probing fixed 29 vars, tightened 0 bounds.
Probing time = 0.05 sec. (15.84 ticks)
Tried aggregator 2 times.
MIP Presolve eliminated 24 rows and 40 columns.
Aggregator did 8 substitutions.
Reduced MIP has 1738 rows, 3673 columns, and 12997 nonzeros.
Reduced MIP has 3673 binaries, 0 generals, 0 SOSs, and 0 indicators.
Presolve time = 0.02 sec. (20.68 ticks)
Probing time = 0.02 sec. (4.91 ticks)
Tried aggregator 1 time.
Detecting symmetries...
MIP Presolve eliminated 2 rows and 1 columns.
Reduced MIP has 1736 rows, 3672 columns, and 12991 nonzeros.
Reduced MIP has 3672 binaries, 0 generals, 0 SOSs, and 0 indicators.
Presolve time = 0.02 sec. (19.33 ticks)
Represolve time = 0.17 sec. (119.33 ticks)
Probing time = 0.02 sec. (3.63 ticks)
Clique table members: 8760.
MIP emphasis: balance optimality and feasibility.
MIP search method: dynamic search.
Parallel mode: opportunistic, using up to 40 threads.
Root relaxation solution time = 0.06 sec. (30.44 ticks)

        Nodes                                         Cuts/
   Node  Left     Objective  IInf  Best Integer    Best Bound    ItCnt     Gap

*     0+    0                      -1.30900e+13  -1.30900e+13             0.00%
      0     0  -1.30900e+13    73  -1.30900e+13  -1.30900e+13     3131    0.00%
      0     0  -1.30900e+13    86  -1.30900e+13      Cuts: 86     3316    0.00%
      0     0  -1.30900e+13   146  -1.30900e+13      Cuts: 56     3588    0.00%
      0     2  -1.30900e+13   133  -1.30900e+13  -1.30900e+13     3588    0.00%
Elapsed time = 1.72 sec. (1089.43 ticks, tree = 0.02 MB, solutions = 6)
    891    87  -1.30900e+13   102  -1.30900e+13  -1.30900e+13    29118    0.00%
*  1000    91      integral     0  -1.30900e+13  -1.30900e+13    31030    0.00%
   1954   212  -1.30900e+13    33  -1.30900e+13  -1.30900e+13   103807    0.00%
   3763    28  -1.30900e+13   168  -1.30900e+13  -1.30900e+13   230931    0.00%
   5347   105  -1.30900e+13    49  -1.30900e+13  -1.30900e+13   142277    0.00%
   5703    30  -1.30900e+13   184  -1.30900e+13  -1.30900e+13   231429    0.00%

GUB cover cuts applied:  2
Clique cuts applied:  15
Cover cuts applied:  542
Flow cuts applied:  6
Mixed integer rounding cuts applied:  1
Zero-half cuts applied:  19
Lift and project cuts applied:  11
Gomory fractional cuts applied:  21

Root node processing (before b&c):
  Real time             =    1.32 sec. (1089.23 ticks)
Parallel b&c, 40 threads:
  Real time             =    2.21 sec. (1365.15 ticks)
  Sync time (average)   =    0.63 sec.
  Wait time (average)   =    0.00 sec.
                          ------------
Total (root+branch&cut) =    3.53 sec. (2454.38 ticks)

Solution pool: 14 solutions saved.

MIP - Integer optimal solution:  Objective = -1.3089999690e+13
Solution time =    3.61 sec.  Iterations = 249947  Nodes = 5762
Deterministic time = 2454.41 ticks  (679.79 ticks/sec)

CPLEX> Solution 'p15' written to file 'ee.sol'.
CPLEX> 